
n_res = 4;
rcap = [20, 20, 388, 425];
rtype = [1, 1, 2, 2];
n_tasks = 100;
modes =  [{1, 2, 3}, {4, 5, 6}, {7, 8, 9}, {10, 11, 12}, {13, 14, 15}, {16, 17, 18}, {19, 20, 21}, {22, 23, 24}, {25, 26, 27}, {28, 29, 30}, {31, 32, 33}, {34, 35, 36}, {37, 38, 39}, {40, 41, 42}, {43, 44, 45}, {46, 47, 48}, {49, 50, 51}, {52, 53, 54}, {55, 56, 57}, {58, 59, 60}, {61, 62, 63}, {64, 65, 66}, {67, 68, 69}, {70, 71, 72}, {73, 74, 75}, {76, 77, 78}, {79, 80, 81}, {82, 83, 84}, {85, 86, 87}, {88, 89, 90}, {91, 92, 93}, {94, 95, 96}, {97, 98, 99}, {100, 101, 102}, {103, 104, 105}, {106, 107, 108}, {109, 110, 111}, {112, 113, 114}, {115, 116, 117}, {118, 119, 120}, {121, 122, 123}, {124, 125, 126}, {127, 128, 129}, {130, 131, 132}, {133, 134, 135}, {136, 137, 138}, {139, 140, 141}, {142, 143, 144}, {145, 146, 147}, {148, 149, 150}, {151, 152, 153}, {154, 155, 156}, {157, 158, 159}, {160, 161, 162}, {163, 164, 165}, {166, 167, 168}, {169, 170, 171}, {172, 173, 174}, {175, 176, 177}, {178, 179, 180}, {181, 182, 183}, {184, 185, 186}, {187, 188, 189}, {190, 191, 192}, {193, 194, 195}, {196, 197, 198}, {199, 200, 201}, {202, 203, 204}, {205, 206, 207}, {208, 209, 210}, {211, 212, 213}, {214, 215, 216}, {217, 218, 219}, {220, 221, 222}, {223, 224, 225}, {226, 227, 228}, {229, 230, 231}, {232, 233, 234}, {235, 236, 237}, {238, 239, 240}, {241, 242, 243}, {244, 245, 246}, {247, 248, 249}, {250, 251, 252}, {253, 254, 255}, {256, 257, 258}, {259, 260, 261}, {262, 263, 264}, {265, 266, 267}, {268, 269, 270}, {271, 272, 273}, {274, 275, 276}, {277, 278, 279}, {280, 281, 282}, {283, 284, 285}, {286, 287, 288}, {289, 290, 291}, {292, 293, 294}, {295, 296, 297}, {298, 299, 300}];
succ =  [{36, 31, 30, 29, 25, 24, 23, 22, 21, 20, 19, 18}, {30, 27, 25, 21, 20, 16, 14, 12}, {30, 24, 13, 12, 8}, {32, 31, 30, 29, 25, 19, 13, 12}, {31, 30, 27, 24, 22, 21, 17, 13}, {36, 32, 30, 29, 24, 23, 22, 20, 19, 18}, {32, 31, 30, 29, 27, 25, 24, 13}, {43, 36, 29, 28, 27, 26, 25, 23, 22, 21}, {43, 29, 23, 22, 20, 19, 14}, {46, 40, 35, 32, 29, 27, 26, 24}, {46, 43, 40, 39, 38, 36, 35, 32, 31, 29, 26}, {43, 35, 33, 26, 23, 22}, {43, 36, 35, 28, 20}, {44, 38, 35, 33, 32, 28, 26}, {43, 30, 20}, {44, 43, 40, 39, 38, 36, 35, 33, 31, 29}, {46, 39, 38, 33, 26, 25}, {44, 43, 41, 38, 34, 28}, {46, 44, 40, 37, 35, 27}, {40, 39, 38, 33, 26}, {40, 39, 38, 34, 33, 32}, {48, 46, 45, 44, 42, 41, 39, 38, 37}, {48, 46, 45, 41, 40, 39, 38, 37}, {48, 45, 44, 43, 42, 41, 39}, {45, 41, 40, 37, 35}, {48, 45, 41, 34}, {42, 41, 38, 33}, {57, 48, 46, 45, 42, 40, 39}, {51, 48, 45, 42, 41, 37}, {57, 48, 47, 46, 45, 44}, {53, 51, 48, 45, 42, 41}, {48, 45, 42, 37}, {57, 53, 51, 50, 48, 47, 45}, {51, 42, 37}, {57, 53, 49, 48, 42}, {57, 53, 49, 48, 42}, {63, 61, 57, 56, 53, 52, 50, 49, 47}, {61, 59, 57, 56, 54, 52, 51, 50, 49}, {63, 61, 56, 51, 50, 49, 47}, {63, 62, 61, 59, 58, 56, 54, 52, 51, 49}, {63, 61, 60, 59, 57, 56, 54, 52, 50}, {61, 56, 55, 52, 50, 47}, {64, 61, 60, 59, 58, 57, 56, 54, 52}, {63, 62, 60, 59, 55, 53, 52, 50}, {63, 60, 59, 58, 56, 52, 49}, {62, 61, 59, 58, 52, 51}, {69, 67, 66, 62, 60, 59, 58, 54}, {75, 69, 67, 66, 65, 64, 63, 62, 61, 58}, {70, 67, 66, 65, 64, 55}, {75, 74, 70, 66, 65, 64, 58}, {70, 69, 66, 64, 60}, {84, 79, 75, 74, 69, 66, 65}, {74, 70, 66, 65, 58}, {84, 79, 76, 75, 74, 73, 72, 71, 70}, {84, 82, 76, 74, 72, 69}, {76, 73, 72, 71, 67}, {84, 82, 62}, {82, 79, 76, 73, 72, 71}, {82, 79, 77, 76, 72, 68}, {79, 76, 71, 65}, {84, 79, 71, 68}, {76, 74, 72, 71}, {82, 79, 77, 68}, {86, 84, 82, 80, 79, 77}, {100, 82, 77, 72}, {72, 68}, {83, 82, 80, 79, 77}, {100, 99, 83, 78, 73}, {100, 83, 71}, {86, 83, 80, 77}, {96, 80, 77}, {99, 96, 93, 86, 83, 80}, {98, 97, 96, 86, 81, 80}, {100, 99, 96, 94, 83, 81}, {96, 82, 78}, {99, 97, 96, 95, 88, 86, 80}, {99, 78}, {94, 92, 88, 85, 81}, {100, 97, 96, 94, 93, 92, 91, 90, 88}, {94, 91, 90, 87}, {95, 93, 91, 90, 89}, {92, 91, 90, 88}, {97, 95, 87}, {100, 93, 91, 90}, {98, 93, 90}, {91, 90, 89}, {92, 89}, {89}, {}, {}, {}, {}, {}, {}, {}, {}, {}, {}, {}, {}];
n_opt = 300;
dur = [7, 9, 10, 1, 2, 4, 8, 9, 9, 1, 4, 10, 1, 7, 8, 3, 5, 7, 1, 2, 8, 1, 3, 5, 1, 4, 8, 6, 9, 10, 1, 6, 8, 2, 3, 9, 5, 5, 9, 4, 4, 5, 1, 3, 6, 5, 7, 9, 2, 8, 9, 1, 5, 7, 1, 9, 10, 3, 3, 4, 7, 7, 7, 2, 3, 5, 1, 2, 3, 4, 5, 5, 3, 5, 6, 5, 8, 10, 2, 9, 9, 2, 5, 8, 2, 6, 10, 2, 5, 8, 7, 8, 8, 1, 2, 6, 1, 4, 5, 3, 4, 10, 7, 8, 9, 7, 9, 9, 1, 8, 10, 3, 4, 8, 7, 9, 10, 7, 9, 9, 1, 7, 9, 8, 9, 10, 2, 5, 7, 4, 6, 7, 3, 9, 10, 1, 3, 10, 6, 7, 7, 4, 9, 9, 3, 8, 10, 1, 5, 9, 1, 1, 4, 3, 8, 9, 1, 3, 6, 6, 8, 10, 1, 3, 6, 5, 8, 10, 2, 5, 6, 2, 4, 4, 5, 6, 7, 2, 6, 6, 6, 8, 9, 1, 8, 9, 3, 5, 8, 6, 9, 10, 1, 3, 7, 2, 6, 8, 2, 8, 9, 2, 4, 7, 1, 6, 7, 7, 7, 10, 4, 7, 8, 1, 3, 9, 5, 9, 10, 6, 7, 9, 3, 3, 8, 4, 5, 9, 2, 8, 10, 2, 8, 10, 1, 2, 9, 1, 3, 7, 1, 2, 4, 1, 3, 10, 1, 2, 8, 2, 5, 7, 3, 4, 8, 1, 2, 9, 7, 8, 9, 2, 5, 10, 1, 5, 8, 5, 8, 9, 4, 6, 7, 3, 7, 9, 3, 4, 7, 1, 2, 7, 4, 7, 10, 2, 8, 8, 2, 7, 9, 4, 5, 8, 4, 5, 9, 5, 9, 10];
rreq = [|0, 0, 0, 0, 0, 4, 0, 0, 2, 4, 3, 3, 0, 0, 2, 4, 3, 0, 0, 0, 2, 0, 3, 0, 0, 0, 0, 0, 0, 3, 0, 0, 2, 3, 0, 0, 1, 1, 1, 4, 2, 0, 0, 3, 3, 0, 1, 1, 4, 2, 0, 4, 0, 0, 4, 0, 0, 2, 1, 0, 4, 0, 0, 0, 0, 0, 0, 2, 2, 2, 0, 2, 5, 0, 4, 1, 1, 0, 0, 0, 0, 0, 1, 1, 0, 4, 0, 3, 3, 0, 5, 0, 3, 0, 4, 0, 0, 0, 0, 0, 0, 1, 0, 0, 5, 0, 1, 1, 0, 2, 2, 0, 0, 0, 0, 2, 0, 5, 5, 0, 5, 4, 3, 0, 0, 0, 4, 3, 0, 0, 0, 2, 4, 0, 0, 0, 3, 0, 2, 2, 0, 2, 2, 0, 3, 0, 0, 4, 0, 3, 0, 0, 0, 0, 0, 2, 0, 2, 2, 0, 2, 0, 4, 0, 0, 3, 2, 1, 4, 3, 0, 0, 2, 0, 5, 3, 2, 1, 0, 1, 0, 0, 0, 0, 0, 0, 2, 2, 1, 5, 5, 5, 0, 2, 2, 3, 2, 0, 0, 2, 1, 0, 0, 0, 0, 5, 5, 5, 0, 0, 4, 0, 0, 4, 0, 3, 5, 0, 4, 0, 0, 1, 0, 0, 3, 3, 2, 2, 0, 0, 2, 4, 3, 2, 0, 5, 0, 0, 0, 0, 5, 5, 5, 0, 0, 2, 3, 0, 0, 4, 4, 4, 1, 1, 1, 5, 4, 3, 0, 3, 3, 0, 4, 0, 0, 3, 2, 0, 3, 3, 0, 0, 0, 0, 3, 1, 0, 0, 0, 0, 3, 3, 0, 0, 3, 0, 0, 0, 2, 0, 2, 5, 0, 0, 0, 0, 0, 0, 0, 0
 |5, 4, 3, 5, 4, 0, 4, 3, 0, 0, 0, 0, 4, 4, 0, 0, 0, 2, 2, 2, 0, 4, 0, 2, 2, 2, 1, 3, 3, 0, 4, 4, 0, 0, 2, 2, 0, 0, 0, 0, 0, 2, 4, 0, 0, 2, 0, 0, 0, 0, 3, 0, 2, 2, 0, 2, 1, 0, 0, 4, 0, 1, 1, 4, 3, 3, 3, 0, 0, 0, 2, 0, 0, 4, 0, 0, 0, 2, 4, 2, 2, 4, 0, 0, 4, 0, 4, 0, 0, 4, 0, 3, 0, 3, 0, 2, 5, 2, 2, 3, 2, 0, 4, 4, 0, 3, 0, 0, 4, 0, 0, 3, 3, 1, 4, 0, 2, 0, 0, 1, 0, 0, 0, 4, 4, 2, 0, 0, 3, 4, 3, 0, 0, 5, 5, 1, 0, 1, 0, 0, 2, 0, 0, 1, 0, 4, 4, 0, 5, 0, 2, 1, 1, 5, 2, 0, 4, 0, 0, 4, 0, 4, 0, 1, 1, 0, 0, 0, 0, 0, 1, 2, 0, 2, 0, 0, 0, 0, 2, 0, 4, 2, 2, 3, 2, 2, 0, 0, 0, 0, 0, 0, 5, 0, 0, 0, 0, 1, 2, 0, 0, 4, 4, 4, 4, 0, 0, 0, 2, 2, 0, 2, 1, 0, 3, 0, 0, 2, 0, 5, 5, 0, 4, 4, 0, 0, 0, 0, 3, 1, 0, 0, 0, 0, 4, 0, 2, 3, 3, 3, 0, 0, 0, 5, 5, 0, 0, 3, 1, 0, 0, 0, 0, 0, 0, 0, 0, 0, 3, 0, 0, 4, 0, 2, 2, 0, 0, 4, 0, 0, 5, 2, 2, 5, 0, 0, 3, 2, 1, 3, 0, 0, 1, 1, 0, 4, 3, 3, 0, 1, 0, 0, 1, 1, 4, 3, 1, 5, 5, 5
 |6, 0, 0, 0, 0, 0, 6, 0, 6, 9, 7, 0, 7, 0, 0, 0, 6, 6, 10, 8, 8, 0, 0, 0, 9, 6, 0, 4, 0, 3, 6, 0, 0, 9, 9, 0, 6, 0, 4, 0, 2, 2, 9, 9, 0, 0, 4, 3, 10, 0, 0, 6, 6, 5, 0, 0, 2, 0, 8, 7, 6, 4, 0, 0, 0, 1, 0, 0, 0, 6, 5, 0, 2, 0, 0, 8, 0, 5, 0, 0, 3, 8, 6, 0, 0, 0, 0, 0, 4, 0, 1, 1, 0, 0, 3, 0, 10, 7, 0, 0, 6, 6, 9, 8, 7, 0, 8, 0, 7, 0, 0, 8, 6, 0, 3, 0, 0, 7, 6, 4, 5, 4, 3, 8, 5, 5, 0, 0, 0, 0, 6, 0, 7, 0, 0, 4, 3, 0, 0, 3, 1, 9, 0, 5, 0, 5, 0, 0, 3, 2, 0, 4, 3, 7, 0, 0, 0, 0, 0, 4, 4, 0, 6, 5, 4, 0, 0, 0, 4, 3, 0, 0, 0, 0, 0, 0, 0, 4, 0, 0, 9, 0, 0, 0, 3, 2, 0, 0, 7, 0, 0, 2, 4, 2, 1, 6, 6, 6, 0, 8, 8, 0, 0, 1, 0, 0, 0, 0, 0, 0, 4, 0, 0, 0, 2, 2, 7, 0, 1, 0, 0, 0, 5, 0, 0, 0, 6, 4, 9, 8, 8, 0, 3, 0, 6, 5, 4, 0, 0, 0, 8, 0, 1, 6, 0, 4, 0, 0, 0, 6, 0, 0, 8, 0, 0, 7, 0, 0, 0, 5, 0, 0, 0, 3, 10, 9, 0, 0, 3, 2, 8, 0, 3, 0, 4, 3, 7, 0, 4, 0, 0, 0, 7, 0, 7, 7, 6, 0, 9, 8, 8, 4, 3, 0, 0, 6, 0, 8, 0, 0
 |0, 3, 2, 3, 3, 3, 0, 5, 0, 0, 0, 4, 0, 3, 2, 5, 0, 0, 0, 0, 0, 6, 4, 4, 0, 0, 6, 0, 8, 0, 0, 7, 6, 0, 0, 1, 0, 7, 0, 7, 0, 0, 0, 0, 2, 4, 0, 0, 0, 7, 7, 0, 0, 0, 8, 5, 0, 5, 0, 0, 0, 0, 6, 9, 8, 0, 6, 5, 4, 0, 0, 2, 0, 7, 3, 0, 5, 0, 10, 10, 0, 0, 0, 9, 8, 5, 4, 2, 0, 1, 0, 0, 4, 9, 0, 6, 0, 0, 5, 9, 0, 0, 0, 0, 0, 8, 0, 3, 0, 9, 8, 0, 0, 9, 0, 7, 6, 0, 0, 0, 0, 0, 0, 0, 0, 0, 7, 7, 2, 10, 0, 8, 0, 4, 2, 0, 0, 5, 2, 0, 0, 0, 4, 0, 7, 0, 7, 9, 0, 0, 7, 0, 0, 0, 4, 2, 6, 5, 3, 0, 0, 5, 0, 0, 0, 7, 6, 6, 0, 0, 2, 10, 8, 8, 5, 5, 4, 0, 6, 6, 0, 8, 7, 10, 0, 0, 8, 7, 0, 8, 3, 0, 0, 0, 0, 0, 0, 0, 10, 0, 0, 2, 1, 0, 8, 7, 6, 9, 7, 6, 0, 4, 4, 7, 0, 0, 0, 7, 0, 9, 3, 1, 0, 1, 1, 10, 0, 0, 0, 0, 0, 8, 0, 3, 0, 0, 0, 3, 2, 1, 0, 5, 0, 0, 6, 0, 8, 4, 1, 0, 9, 7, 0, 8, 7, 0, 6, 6, 5, 0, 1, 5, 5, 0, 0, 0, 5, 9, 0, 0, 0, 6, 0, 9, 0, 0, 0, 7, 0, 9, 9, 8, 0, 8, 0, 0, 0, 3, 0, 0, 0, 0, 0, 2, 6, 0, 4, 0, 3, 2|];